
&INPUTPH
    prefix   = 'Pb'       
    outdir   = './'          
    fildyn   = 'Pb.dyn'    
    fildvscf = 'dvscf'       
    ldisp    = .true.        
    nq1      = 4    
    nq2      = 4 
    nq3      = 4 
    asr      = .true.        
    tr2_ph   = 1.0d-12
    recover = .true.
