
&INPUT
   fildyn='Pb.dyn'
   zasr='simple'
   flfrc='Pb.fc'           
/
