
&BANDS
 prefix='Pb'
 outdir='.'
 filband = 'Pbbands.dat'
 lsym=.true.
/
