
&CONTROL
    calculation   = 'scf'
    restart_mode  = 'from_scratch'      
    prefix        = 'Pb'              
    pseudo_dir    = '/cluster/scratch/mnoe/QE/pps'         
    outdir        = './'
/
&SYSTEM   
    ibrav       = 0      
    nat         = 1       
    ntyp        = 1   
    ecutwfc     = 30               
    occupations = 'smearing'
    smearing    = 'gaussian'
    degauss     = 0.003674931
    tot_charge  = 0.0   
    noncolin    = .false.
    lspinorb    = .false.
/
&ELECTRONS
    conv_thr    = 1.0d-10              
    diagonalization = 'cg'              
/

CELL_PARAMETERS angstrom
   -2.44018386041000    0.00000000000000    2.44018386041000
    0.00000000000000    2.44018386041000    2.44018386041000
   -2.44018386041000    2.44018386041000    0.00000000000000

      
ATOMIC_SPECIES
Pb 207.2 pb_s.UPF


ATOMIC_POSITIONS crystal
Pb 0.00 0.00 0.00

K_POINTS automatic
8 8 8 0 0 0
